784 1512
1 2 5
1 29 1
2 3 4
2 30 4
3 4 5
3 31 1
4 5 2
4 32 1
5 6 1
5 33 2
6 7 4
6 34 3
7 8 1
7 35 3
8 9 1
8 36 4
9 10 2
9 37 3
10 11 4
10 38 3
11 12 3
11 39 4
12 13 5
12 40 4
13 14 4
13 41 4
14 15 2
14 42 4
15 16 2
15 43 5
16 17 3
16 44 3
17 18 4
17 45 2
18 19 4
18 46 5
19 20 4
19 47 3
20 21 1
20 48 1
21 22 5
21 49 2
22 23 5
22 50 5
23 24 2
23 51 1
24 25 2
24 52 2
25 26 4
25 53 1
26 27 1
26 54 1
27 28 2
27 55 2
28 56 1
29 30 3
29 57 5
30 31 3
30 58 3
31 32 3
31 59 4
32 33 3
32 60 2
33 34 3
33 61 5
34 35 5
34 62 5
35 36 5
35 63 5
36 37 4
36 64 1
37 38 4
37 65 4
38 39 3
38 66 1
39 40 3
39 67 5
40 41 3
40 68 3
41 42 5
41 69 1
42 43 3
42 70 5
43 44 1
43 71 2
44 45 5
44 72 4
45 46 3
45 73 5
46 47 5
46 74 4
47 48 1
47 75 5
48 49 5
48 76 5
49 50 5
49 77 2
50 51 4
50 78 3
51 52 4
51 79 3
52 53 4
52 80 3
53 54 1
53 81 1
54 55 5
54 82 2
55 56 1
55 83 4
56 84 3
57 58 2
57 85 1
58 59 1
58 86 1
59 60 5
59 87 2
60 61 1
60 88 3
61 62 3
61 89 5
62 63 4
62 90 4
63 64 4
63 91 5
64 65 2
64 92 5
65 66 1
65 93 5
66 67 2
66 94 1
67 68 4
67 95 3
68 69 3
68 96 5
69 70 5
69 97 2
70 71 4
70 98 2
71 72 2
71 99 4
72 73 3
72 100 4
73 74 5
73 101 2
74 75 2
74 102 3
75 76 5
75 103 1
76 77 3
76 104 1
77 78 2
77 105 2
78 79 2
78 106 3
79 80 1
79 107 4
80 81 2
80 108 5
81 82 1
81 109 3
82 83 1
82 110 2
83 84 5
83 111 1
84 112 5
85 86 2
85 113 3
86 87 4
86 114 4
87 88 4
87 115 3
88 89 5
88 116 2
89 90 3
89 117 2
90 91 4
90 118 1
91 92 4
91 119 2
92 93 1
92 120 5
93 94 5
93 121 2
94 95 5
94 122 2
95 96 1
95 123 4
96 97 5
96 124 4
97 98 3
97 125 5
98 99 2
98 126 5
99 100 5
99 127 3
100 101 5
100 128 2
101 102 1
101 129 1
102 103 1
102 130 2
103 104 3
103 131 1
104 105 5
104 132 4
105 106 5
105 133 5
106 107 2
106 134 5
107 108 2
107 135 3
108 109 2
108 136 3
109 110 4
109 137 5
110 111 4
110 138 4
111 112 1
111 139 3
112 140 5
113 114 2
113 141 3
114 115 1
114 142 1
115 116 1
115 143 2
116 117 3
116 144 2
117 118 4
117 145 3
118 119 4
118 146 3
119 120 2
119 147 2
120 121 4
120 148 2
121 122 5
121 149 1
122 123 3
122 150 2
123 124 2
123 151 4
124 125 3
124 152 1
125 126 3
125 153 5
126 127 5
126 154 5
127 128 5
127 155 3
128 129 2
128 156 2
129 130 3
129 157 2
130 131 4
130 158 3
131 132 4
131 159 3
132 133 1
132 160 4
133 134 5
133 161 4
134 135 1
134 162 5
135 136 5
135 163 3
136 137 3
136 164 5
137 138 5
137 165 3
138 139 1
138 166 2
139 140 1
139 167 4
140 168 2
141 142 2
141 169 3
142 143 4
142 170 5
143 144 3
143 171 5
144 145 5
144 172 4
145 146 2
145 173 1
146 147 2
146 174 2
147 148 3
147 175 5
148 149 1
148 176 5
149 150 3
149 177 4
150 151 3
150 178 3
151 152 1
151 179 5
152 153 4
152 180 3
153 154 3
153 181 4
154 155 1
154 182 4
155 156 1
155 183 4
156 157 4
156 184 2
157 158 1
157 185 1
158 159 3
158 186 2
159 160 1
159 187 3
160 161 2
160 188 4
161 162 3
161 189 2
162 163 5
162 190 2
163 164 5
163 191 5
164 165 4
164 192 1
165 166 2
165 193 2
166 167 1
166 194 5
167 168 4
167 195 1
168 196 2
169 170 2
169 197 2
170 171 4
170 198 5
171 172 3
171 199 1
172 173 1
172 200 4
173 174 3
173 201 3
174 175 3
174 202 5
175 176 5
175 203 3
176 177 3
176 204 1
177 178 4
177 205 3
178 179 2
178 206 4
179 180 1
179 207 2
180 181 1
180 208 3
181 182 4
181 209 1
182 183 1
182 210 1
183 184 4
183 211 5
184 185 1
184 212 3
185 186 5
185 213 2
186 187 1
186 214 1
187 188 4
187 215 3
188 189 5
188 216 4
189 190 5
189 217 1
190 191 1
190 218 5
191 192 5
191 219 1
192 193 5
192 220 4
193 194 4
193 221 3
194 195 4
194 222 3
195 196 1
195 223 4
196 224 1
197 198 4
197 225 4
198 199 3
198 226 4
199 200 3
199 227 4
200 201 3
200 228 5
201 202 5
201 229 2
202 203 1
202 230 5
203 204 2
203 231 2
204 205 1
204 232 2
205 206 4
205 233 2
206 207 3
206 234 3
207 208 3
207 235 4
208 209 3
208 236 3
209 210 5
209 237 3
210 211 4
210 238 1
211 212 5
211 239 5
212 213 4
212 240 4
213 214 1
213 241 4
214 215 5
214 242 1
215 216 3
215 243 4
216 217 4
216 244 4
217 218 1
217 245 4
218 219 5
218 246 4
219 220 4
219 247 2
220 221 3
220 248 5
221 222 1
221 249 2
222 223 2
222 250 4
223 224 5
223 251 2
224 252 3
225 226 1
225 253 2
226 227 5
226 254 3
227 228 1
227 255 3
228 229 4
228 256 4
229 230 1
229 257 1
230 231 1
230 258 3
231 232 5
231 259 2
232 233 2
232 260 3
233 234 4
233 261 1
234 235 4
234 262 1
235 236 1
235 263 2
236 237 5
236 264 5
237 238 1
237 265 3
238 239 5
238 266 5
239 240 2
239 267 5
240 241 4
240 268 3
241 242 4
241 269 1
242 243 2
242 270 4
243 244 5
243 271 3
244 245 1
244 272 2
245 246 1
245 273 2
246 247 4
246 274 4
247 248 2
247 275 2
248 249 5
248 276 1
249 250 3
249 277 3
250 251 3
250 278 5
251 252 1
251 279 5
252 280 4
253 254 4
253 281 1
254 255 4
254 282 2
255 256 5
255 283 5
256 257 4
256 284 4
257 258 5
257 285 4
258 259 5
258 286 2
259 260 1
259 287 2
260 261 4
260 288 5
261 262 5
261 289 2
262 263 5
262 290 3
263 264 1
263 291 2
264 265 3
264 292 3
265 266 4
265 293 3
266 267 5
266 294 4
267 268 1
267 295 1
268 269 1
268 296 3
269 270 1
269 297 5
270 271 1
270 298 3
271 272 3
271 299 5
272 273 2
272 300 3
273 274 5
273 301 3
274 275 2
274 302 4
275 276 5
275 303 4
276 277 5
276 304 2
277 278 5
277 305 3
278 279 1
278 306 4
279 280 3
279 307 1
280 308 5
281 282 5
281 309 2
282 283 2
282 310 3
283 284 1
283 311 5
284 285 4
284 312 5
285 286 4
285 313 5
286 287 4
286 314 2
287 288 2
287 315 1
288 289 4
288 316 1
289 290 2
289 317 4
290 291 3
290 318 1
291 292 1
291 319 4
292 293 3
292 320 2
293 294 1
293 321 3
294 295 3
294 322 2
295 296 3
295 323 5
296 297 3
296 324 3
297 298 5
297 325 4
298 299 3
298 326 2
299 300 1
299 327 3
300 301 4
300 328 4
301 302 1
301 329 3
302 303 3
302 330 2
303 304 5
303 331 5
304 305 3
304 332 4
305 306 1
305 333 2
306 307 5
306 334 4
307 308 2
307 335 1
308 336 2
309 310 5
309 337 1
310 311 3
310 338 2
311 312 4
311 339 3
312 313 1
312 340 3
313 314 3
313 341 2
314 315 5
314 342 5
315 316 1
315 343 4
316 317 2
316 344 2
317 318 5
317 345 1
318 319 5
318 346 4
319 320 4
319 347 3
320 321 5
320 348 3
321 322 3
321 349 2
322 323 1
322 350 5
323 324 2
323 351 1
324 325 5
324 352 3
325 326 3
325 353 4
326 327 4
326 354 4
327 328 4
327 355 2
328 329 1
328 356 5
329 330 4
329 357 1
330 331 2
330 358 2
331 332 5
331 359 2
332 333 5
332 360 2
333 334 5
333 361 1
334 335 2
334 362 3
335 336 3
335 363 2
336 364 3
337 338 2
337 365 5
338 339 4
338 366 5
339 340 1
339 367 5
340 341 1
340 368 3
341 342 3
341 369 5
342 343 5
342 370 5
343 344 3
343 371 2
344 345 4
344 372 1
345 346 2
345 373 4
346 347 3
346 374 3
347 348 2
347 375 2
348 349 2
348 376 5
349 350 5
349 377 3
350 351 2
350 378 4
351 352 4
351 379 3
352 353 2
352 380 5
353 354 1
353 381 1
354 355 1
354 382 4
355 356 4
355 383 4
356 357 5
356 384 1
357 358 3
357 385 2
358 359 2
358 386 3
359 360 4
359 387 4
360 361 5
360 388 2
361 362 5
361 389 1
362 363 1
362 390 5
363 364 5
363 391 1
364 392 3
365 366 4
365 393 3
366 367 5
366 394 2
367 368 1
367 395 2
368 369 1
368 396 2
369 370 5
369 397 4
370 371 1
370 398 1
371 372 5
371 399 4
372 373 2
372 400 3
373 374 4
373 401 3
374 375 1
374 402 3
375 376 2
375 403 2
376 377 2
376 404 4
377 378 2
377 405 3
378 379 4
378 406 4
379 380 3
379 407 1
380 381 2
380 408 4
381 382 5
381 409 4
382 383 1
382 410 2
383 384 4
383 411 1
384 385 4
384 412 5
385 386 1
385 413 2
386 387 4
386 414 4
387 388 3
387 415 1
388 389 1
388 416 1
389 390 2
389 417 5
390 391 4
390 418 1
391 392 3
391 419 3
392 420 1
393 394 5
393 421 1
394 395 5
394 422 4
395 396 5
395 423 3
396 397 1
396 424 2
397 398 5
397 425 1
398 399 1
398 426 3
399 400 2
399 427 3
400 401 2
400 428 2
401 402 1
401 429 5
402 403 2
402 430 4
403 404 1
403 431 4
404 405 1
404 432 5
405 406 3
405 433 4
406 407 1
406 434 1
407 408 1
407 435 3
408 409 5
408 436 5
409 410 5
409 437 5
410 411 2
410 438 1
411 412 1
411 439 4
412 413 2
412 440 4
413 414 4
413 441 3
414 415 1
414 442 1
415 416 2
415 443 2
416 417 4
416 444 1
417 418 2
417 445 4
418 419 1
418 446 3
419 420 2
419 447 3
420 448 4
421 422 1
421 449 2
422 423 4
422 450 1
423 424 1
423 451 3
424 425 3
424 452 4
425 426 4
425 453 4
426 427 1
426 454 2
427 428 3
427 455 5
428 429 1
428 456 1
429 430 1
429 457 2
430 431 3
430 458 2
431 432 2
431 459 1
432 433 5
432 460 5
433 434 3
433 461 4
434 435 1
434 462 5
435 436 4
435 463 4
436 437 5
436 464 2
437 438 4
437 465 3
438 439 2
438 466 3
439 440 5
439 467 5
440 441 5
440 468 2
441 442 2
441 469 3
442 443 2
442 470 3
443 444 1
443 471 4
444 445 4
444 472 3
445 446 2
445 473 1
446 447 4
446 474 1
447 448 2
447 475 1
448 476 5
449 450 5
449 477 4
450 451 1
450 478 1
451 452 4
451 479 1
452 453 2
452 480 2
453 454 5
453 481 3
454 455 3
454 482 1
455 456 1
455 483 4
456 457 5
456 484 1
457 458 3
457 485 4
458 459 1
458 486 3
459 460 2
459 487 2
460 461 5
460 488 1
461 462 5
461 489 1
462 463 2
462 490 4
463 464 5
463 491 3
464 465 2
464 492 1
465 466 1
465 493 1
466 467 1
466 494 3
467 468 4
467 495 4
468 469 4
468 496 5
469 470 1
469 497 4
470 471 1
470 498 5
471 472 3
471 499 3
472 473 1
472 500 5
473 474 5
473 501 1
474 475 2
474 502 4
475 476 2
475 503 1
476 504 3
477 478 5
477 505 2
478 479 2
478 506 4
479 480 3
479 507 1
480 481 5
480 508 2
481 482 3
481 509 2
482 483 2
482 510 1
483 484 3
483 511 3
484 485 4
484 512 4
485 486 4
485 513 2
486 487 1
486 514 2
487 488 4
487 515 3
488 489 5
488 516 1
489 490 3
489 517 3
490 491 5
490 518 4
491 492 1
491 519 1
492 493 4
492 520 2
493 494 3
493 521 2
494 495 1
494 522 3
495 496 3
495 523 5
496 497 3
496 524 5
497 498 1
497 525 5
498 499 4
498 526 3
499 500 5
499 527 4
500 501 1
500 528 5
501 502 1
501 529 5
502 503 1
502 530 3
503 504 3
503 531 3
504 532 1
505 506 4
505 533 2
506 507 4
506 534 2
507 508 1
507 535 5
508 509 5
508 536 4
509 510 5
509 537 1
510 511 4
510 538 3
511 512 1
511 539 5
512 513 3
512 540 2
513 514 2
513 541 5
514 515 1
514 542 2
515 516 5
515 543 1
516 517 3
516 544 4
517 518 5
517 545 5
518 519 3
518 546 5
519 520 2
519 547 2
520 521 4
520 548 2
521 522 1
521 549 4
522 523 4
522 550 3
523 524 4
523 551 2
524 525 2
524 552 3
525 526 1
525 553 5
526 527 3
526 554 5
527 528 3
527 555 2
528 529 5
528 556 4
529 530 1
529 557 3
530 531 5
530 558 3
531 532 1
531 559 3
532 560 4
533 534 2
533 561 2
534 535 4
534 562 4
535 536 1
535 563 1
536 537 1
536 564 2
537 538 5
537 565 2
538 539 5
538 566 2
539 540 1
539 567 2
540 541 5
540 568 1
541 542 3
541 569 2
542 543 4
542 570 5
543 544 5
543 571 2
544 545 2
544 572 3
545 546 3
545 573 3
546 547 5
546 574 5
547 548 2
547 575 4
548 549 1
548 576 3
549 550 3
549 577 4
550 551 2
550 578 3
551 552 1
551 579 5
552 553 5
552 580 4
553 554 5
553 581 4
554 555 5
554 582 1
555 556 1
555 583 2
556 557 5
556 584 5
557 558 3
557 585 3
558 559 1
558 586 1
559 560 5
559 587 5
560 588 5
561 562 5
561 589 5
562 563 5
562 590 5
563 564 2
563 591 3
564 565 4
564 592 5
565 566 1
565 593 1
566 567 4
566 594 5
567 568 5
567 595 1
568 569 4
568 596 2
569 570 5
569 597 5
570 571 4
570 598 4
571 572 4
571 599 1
572 573 3
572 600 1
573 574 4
573 601 4
574 575 4
574 602 5
575 576 3
575 603 1
576 577 5
576 604 1
577 578 2
577 605 1
578 579 1
578 606 4
579 580 4
579 607 1
580 581 3
580 608 5
581 582 4
581 609 2
582 583 5
582 610 4
583 584 2
583 611 5
584 585 1
584 612 3
585 586 2
585 613 2
586 587 3
586 614 4
587 588 1
587 615 2
588 616 1
589 590 2
589 617 1
590 591 5
590 618 4
591 592 1
591 619 2
592 593 5
592 620 2
593 594 4
593 621 3
594 595 5
594 622 2
595 596 1
595 623 4
596 597 2
596 624 4
597 598 2
597 625 5
598 599 2
598 626 3
599 600 5
599 627 3
600 601 2
600 628 5
601 602 2
601 629 3
602 603 5
602 630 2
603 604 5
603 631 5
604 605 2
604 632 2
605 606 3
605 633 1
606 607 3
606 634 3
607 608 2
607 635 5
608 609 1
608 636 1
609 610 1
609 637 1
610 611 4
610 638 3
611 612 1
611 639 5
612 613 5
612 640 4
613 614 1
613 641 1
614 615 1
614 642 1
615 616 1
615 643 2
616 644 3
617 618 2
617 645 4
618 619 5
618 646 1
619 620 3
619 647 5
620 621 2
620 648 5
621 622 1
621 649 4
622 623 1
622 650 3
623 624 3
623 651 1
624 625 4
624 652 4
625 626 1
625 653 4
626 627 3
626 654 1
627 628 5
627 655 4
628 629 1
628 656 3
629 630 5
629 657 3
630 631 4
630 658 5
631 632 1
631 659 2
632 633 2
632 660 5
633 634 1
633 661 5
634 635 4
634 662 2
635 636 5
635 663 3
636 637 3
636 664 2
637 638 4
637 665 3
638 639 5
638 666 5
639 640 4
639 667 4
640 641 2
640 668 4
641 642 3
641 669 5
642 643 2
642 670 5
643 644 3
643 671 3
644 672 3
645 646 5
645 673 5
646 647 1
646 674 5
647 648 4
647 675 5
648 649 1
648 676 4
649 650 1
649 677 1
650 651 2
650 678 5
651 652 2
651 679 4
652 653 1
652 680 1
653 654 5
653 681 1
654 655 2
654 682 4
655 656 5
655 683 3
656 657 5
656 684 1
657 658 5
657 685 4
658 659 1
658 686 3
659 660 2
659 687 5
660 661 1
660 688 3
661 662 4
661 689 2
662 663 3
662 690 5
663 664 4
663 691 2
664 665 1
664 692 3
665 666 5
665 693 1
666 667 2
666 694 4
667 668 1
667 695 5
668 669 4
668 696 1
669 670 5
669 697 5
670 671 4
670 698 5
671 672 4
671 699 3
672 700 2
673 674 5
673 701 1
674 675 5
674 702 2
675 676 2
675 703 3
676 677 5
676 704 3
677 678 5
677 705 5
678 679 5
678 706 3
679 680 4
679 707 3
680 681 3
680 708 1
681 682 1
681 709 3
682 683 2
682 710 3
683 684 2
683 711 2
684 685 1
684 712 4
685 686 4
685 713 1
686 687 5
686 714 1
687 688 5
687 715 3
688 689 4
688 716 2
689 690 3
689 717 2
690 691 1
690 718 3
691 692 2
691 719 3
692 693 1
692 720 2
693 694 4
693 721 2
694 695 5
694 722 1
695 696 1
695 723 2
696 697 1
696 724 4
697 698 2
697 725 1
698 699 2
698 726 3
699 700 2
699 727 4
700 728 2
701 702 1
701 729 3
702 703 3
702 730 2
703 704 4
703 731 1
704 705 1
704 732 2
705 706 1
705 733 4
706 707 5
706 734 1
707 708 3
707 735 5
708 709 1
708 736 4
709 710 4
709 737 5
710 711 3
710 738 1
711 712 4
711 739 1
712 713 1
712 740 2
713 714 5
713 741 2
714 715 3
714 742 4
715 716 4
715 743 4
716 717 4
716 744 5
717 718 5
717 745 3
718 719 4
718 746 4
719 720 2
719 747 1
720 721 3
720 748 1
721 722 1
721 749 4
722 723 5
722 750 2
723 724 1
723 751 1
724 725 5
724 752 5
725 726 4
725 753 2
726 727 5
726 754 4
727 728 1
727 755 2
728 756 3
729 730 3
729 757 2
730 731 5
730 758 1
731 732 1
731 759 5
732 733 4
732 760 4
733 734 4
733 761 5
734 735 3
734 762 4
735 736 3
735 763 1
736 737 2
736 764 5
737 738 1
737 765 1
738 739 4
738 766 3
739 740 5
739 767 5
740 741 4
740 768 5
741 742 5
741 769 3
742 743 4
742 770 3
743 744 5
743 771 2
744 745 5
744 772 5
745 746 5
745 773 2
746 747 5
746 774 2
747 748 5
747 775 3
748 749 3
748 776 5
749 750 1
749 777 3
750 751 2
750 778 1
751 752 4
751 779 2
752 753 1
752 780 3
753 754 2
753 781 2
754 755 2
754 782 4
755 756 3
755 783 4
756 784 3
757 758 5
758 759 4
759 760 3
760 761 2
761 762 1
762 763 3
763 764 3
764 765 1
765 766 4
766 767 5
767 768 4
768 769 5
769 770 4
770 771 2
771 772 2
772 773 1
773 774 5
774 775 2
775 776 5
776 777 4
777 778 2
778 779 2
779 780 2
780 781 3
781 782 1
782 783 3
783 784 2
